p cnf 7230 16
-1676 -3472 -3482 -3486 -3544 4067 0
3482 -4067 0
4074 4075 0
3502 -4075 0
-3502 -4074 0
4072 4073 0
3500 -4073 0
-3500 -4072 0
-3498 4071 0
4070 -4071 0
3498 -4070 0
4068 4069 0
3494 -4069 0
-3494 -4068 0
-4066 4067 0
4066 -4067 0
